9 165
21 101
85 34
39 97
32 32
59 5
22 190
35 136
9 127
25 33
42 29
8 106
47 57
11 186
13 198
30 71
17 136
19 106
13 139
6 91
48 39
31 127
8 82
30 132
98 4
80 22
4 120
12 125
44 6
2 52
68 81
56 81
64 29
7 148
32 16
28 48
84 16
3 7
19 32
11 133
72 57
22 58
1 172
9 162
24 21
5 98
57 47
53 63
26 122
55 44
